# Solution for model GasLib-40
# Objective value = 1.0517029075521895e+01
loadshed[innode_1] 0
loadshed[innode_2] 0
loadshed[innode_3] 0
loadshed[innode_4] 0
loadshed[innode_5] 0
loadshed[innode_6] 0
loadshed[innode_7] 0
loadshed[innode_8] 0
loadshed[source_1] -2.4617979795305511e-01
loadshed[source_2] 1.2741932215956353e-01
loadshed[source_3] 1.8528593974578744e-01
loadshed[sink_1] 0
loadshed[sink_2] 0
loadshed[sink_3] 0
loadshed[sink_4] 0
loadshed[sink_5] 0
loadshed[sink_6] 0
loadshed[sink_7] 0
loadshed[sink_8] 0
loadshed[sink_9] 0
loadshed[sink_10] 0
loadshed[sink_11] 0
loadshed[sink_12] 6.4307948487267641e-01
loadshed[sink_13] 0
loadshed[sink_14] 0
loadshed[sink_15] 0
loadshed[sink_16] 0
loadshed[sink_17] 0
loadshed[sink_18] 0
loadshed[sink_19] 0
loadshed[sink_20] 0
loadshed[sink_21] 0
loadshed[sink_22] 0
loadshed[sink_23] 0
loadshed[sink_24] 0
loadshed[sink_25] 0
loadshed[sink_26] 0
loadshed[sink_27] 0
loadshed[sink_28] 0
loadshed[sink_29] 0
flow[source_1,sink_3] 1.9700891041945346e+02
flow[innode_1,sink_16] 1.6354166666666970e+01
flow[innode_6,sink_13] -14.319205428383
flow[sink_13,sink_14] -3.0673372095049668e+01
flow[sink_14,sink_10] -4.7027538761716336e+01
flow[sink_25,sink_26] 1.5161025431025757e+02
flow[sink_26,sink_9] 1.3525608764359126e+02
flow[sink_9,sink_18] 1.1890192097692459e+02
flow[sink_26,sink_4] 0
flow[sink_4,sink_20] -16.3541666666693
flow[sink_18,sink_6] 1.0254775431025791e+02
flow[sink_25,innode_8] -1.6430057708611707e+02
flow[sink_6,sink_7] 5.3485254310257460e+01
flow[sink_6,sink_22] 3.2708333333333641e+01
flow[sink_7,sink_24] 3.8545470924478110e+01
flow[sink_22,sink_1] 1.6354166666666970e+01
flow[sink_24,sink_21] 2.2191304257811439e+01
flow[sink_21,sink_12] 5.8371375911447707e+00
flow[sink_7,sink_5] -1.4143832808872787e+00
flow[sink_5,sink_17] -1.7768549947553993e+01
flow[sink_17,sink_4] 0
flow[sink_17,sink_8] -3.4122716614220721e+01
flow[sink_3,sink_23] 16.3541666666697
flow[sink_8,sink_20] -5.0476883280887392e+01
flow[sink_25,sink_20] 8.3185216614223322e+01
flow[sink_25,sink_15] -7.2529855076648332e+01
flow[sink_15,sink_29] 0
flow[sink_29,sink_28] 1.6354166666667879e+01
flow[sink_29,sink_2] 1.0523818840998167e+02
flow[sink_2,sink_15] 88.884021743315
flow[sink_29,innode_7] -1.3794652174331623e+02
flow[innode_4,sink_19] 5.0326273906778191e+01
flow[sink_19,innode_3] 4.6891533319883969e+01
flow[innode_4,innode_5] 7.8472098188271460e+01
flow[sink_27,innode_5] -7.8472098188271460e+01
flow[sink_27,sink_19] 6.2117931521604795e+01
flow[sink_10,sink_11] 3.2708333333333641e+01
flow[sink_10,innode_2] -4.9198505441832673e+01
flow[sink_10,innode_3] -4.6891533319883969e+01
flow[innode_6,sink_25] 14.319205428383
flow[sink_11,innode_1] 1.6354166666666970e+01
flow[sink_19,innode_2] 4.9198505441832673e+01
flow[source_3,innode_4] 1.2879837209504964e+02
flow[source_2,innode_7] 1.3794652174331623e+02
flow[sink_3,innode_8] 1.6430057708611707e+02
pressure[innode_1] 76.2223588952729
pressure[innode_2] 7.8974404411959640e+01
pressure[innode_3] 7.8870568421312882e+01
pressure[innode_4] 81.01325
pressure[innode_5] 8.0959272753019548e+01
pressure[innode_6] 7.4015891654254986e+01
pressure[innode_7] 81.01325
pressure[innode_8] 8.0354724472599429e+01
pressure[source_1] 81.01325
pressure[source_2] 81.01325
pressure[source_3] 81.01325
pressure[sink_1] 4.6101010682248351e+01
pressure[sink_2] 7.4657918867320234e+01
pressure[sink_3] 8.0354724472599429e+01
pressure[sink_4] 5.2984972654546404e+01
pressure[sink_5] 4.8056094186533883e+01
pressure[sink_6] 4.8202088292635722e+01
pressure[sink_7] 4.7467863240506453e+01
pressure[sink_8] 5.0667261469351118e+01
pressure[sink_9] 5.5242644547126631e+01
pressure[sink_10] 7.6374060202876450e+01
pressure[sink_11] 76.2223588952729
pressure[sink_12] 1.0132500000000002e+00
pressure[sink_13] 7.4094831040820125e+01
pressure[sink_14] 74.1497236529778
pressure[sink_15] 7.4367732126051166e+01
pressure[sink_16] 7.5200709060455225e+01
pressure[sink_17] 4.9379722722858709e+01
pressure[sink_18] 5.0940418657508964e+01
pressure[sink_19] 7.8974404411959640e+01
pressure[sink_20] 5.4184790363938056e+01
pressure[sink_21] 3.0904230227140692e+00
pressure[sink_22] 4.7164779824603357e+01
pressure[sink_23] 8.0190006460939642e+01
pressure[sink_24] 3.3361710991887032e+00
pressure[sink_25] 7.4015891654254986e+01
pressure[sink_26] 6.3338070478948346e+01
pressure[sink_27] 8.0308099338903276e+01
pressure[sink_28] 7.7028438674627168e+01
pressure[sink_29] 7.7323720948244343e+01
interdiction[source_1,sink_3] 0
interdiction[innode_1,sink_16] 0
interdiction[innode_6,sink_13] 0
interdiction[sink_13,sink_14] 0
interdiction[sink_14,sink_10] 0
interdiction[sink_25,sink_26] 0
interdiction[sink_26,sink_9] 0
interdiction[sink_9,sink_18] 0
interdiction[sink_26,sink_4] 1
interdiction[sink_4,sink_20] 0
interdiction[sink_18,sink_6] 0
interdiction[sink_25,innode_8] 0
interdiction[sink_6,sink_7] 0
interdiction[sink_6,sink_22] 0
interdiction[sink_7,sink_24] 0
interdiction[sink_22,sink_1] 0
interdiction[sink_24,sink_21] 0
interdiction[sink_21,sink_12] 0
interdiction[sink_7,sink_5] 0
interdiction[sink_5,sink_17] 0
interdiction[sink_17,sink_4] 1
interdiction[sink_17,sink_8] 0
interdiction[sink_3,sink_23] 0
interdiction[sink_8,sink_20] 0
interdiction[sink_25,sink_20] 0
interdiction[sink_25,sink_15] 0
interdiction[sink_15,sink_29] 1
interdiction[sink_29,sink_28] 0
interdiction[sink_29,sink_2] 0
interdiction[sink_2,sink_15] 0
interdiction[sink_29,innode_7] 0
interdiction[innode_4,sink_19] 0
interdiction[sink_19,innode_3] 0
interdiction[innode_4,innode_5] 0
interdiction[sink_27,innode_5] 0
interdiction[sink_27,sink_19] 0
interdiction[sink_10,sink_11] 0
interdiction[sink_10,innode_2] 0
interdiction[sink_10,innode_3] 0
interdiction[innode_6,sink_25] 0
interdiction[sink_11,innode_1] 0
interdiction[sink_19,innode_2] 0
interdiction[source_3,innode_4] 0
interdiction[source_2,innode_7] 0
interdiction[sink_3,innode_8] 0
WCcheckFlow[source_1,sink_3] 39
WCcheckFlow[innode_1,sink_16] 1
WCcheckFlow[innode_6,sink_13] 13
WCcheckFlow[sink_13,sink_14] 12
WCcheckFlow[sink_14,sink_10] 11
WCcheckFlow[sink_25,sink_26] 15
WCcheckFlow[sink_26,sink_9] 14
WCcheckFlow[sink_9,sink_18] 13
WCcheckFlow[sink_26,sink_4] 0
WCcheckFlow[sink_4,sink_20] -1
WCcheckFlow[sink_18,sink_6] 12
WCcheckFlow[sink_25,innode_8] -36
WCcheckFlow[sink_6,sink_7] 9
WCcheckFlow[sink_6,sink_22] 2
WCcheckFlow[sink_7,sink_24] 3
WCcheckFlow[sink_22,sink_1] 1
WCcheckFlow[sink_24,sink_21] 2
WCcheckFlow[sink_21,sink_12] 1
WCcheckFlow[sink_7,sink_5] 5
WCcheckFlow[sink_5,sink_17] 4
WCcheckFlow[sink_17,sink_4] 0
WCcheckFlow[sink_17,sink_8] 3
WCcheckFlow[sink_3,sink_23] 1
WCcheckFlow[sink_8,sink_20] 2
WCcheckFlow[sink_25,sink_20] 0
WCcheckFlow[sink_25,sink_15] 6
WCcheckFlow[sink_15,sink_29] 0
WCcheckFlow[sink_29,sink_28] 1
WCcheckFlow[sink_29,sink_2] -4
WCcheckFlow[sink_2,sink_15] -5
WCcheckFlow[sink_29,innode_7] 2
WCcheckFlow[innode_4,sink_19] -4
WCcheckFlow[sink_19,innode_3] -5
WCcheckFlow[innode_4,innode_5] 2
WCcheckFlow[sink_27,innode_5] -1
WCcheckFlow[sink_27,sink_19] 0
WCcheckFlow[sink_10,sink_11] 3
WCcheckFlow[sink_10,innode_2] 1
WCcheckFlow[sink_10,innode_3] 6
WCcheckFlow[innode_6,sink_25] -14
WCcheckFlow[sink_11,innode_1] 2
WCcheckFlow[sink_19,innode_2] 0
WCcheckFlow[source_3,innode_4] -1
WCcheckFlow[source_2,innode_7] -1
WCcheckFlow[sink_3,innode_8] 37
